Route 1: 28 136 171 63 70 99 162 94 60 173 30 108 133 16 61 72 122 188 142 196 24 92 160 49 117 82 17 7 170 165 58 178 66 52 105 107
Route 2: 200 51 41 21 65 183 3 189 195 116 35 199 15 11 4 155 175 47 161 197 106 146 147 54 186 184 14 19 9 179 23 89 36 144 62
Route 3: 167 40 119 38 134 22 87 43 191 8 98 76 97 151 69 163 150 31 172 75 154 168 181 177 78 166 88 39 1 176 157 34 114 68 46
Route 4: 132 67 10 153 100 59 86 182 45 77 33 13 12 50 73 32 96 139 141 74 103 81 130 93 152 149 109 125 112 118 95 129 187
Route 5: 104 110 42 138 2 143 128 126 90 25 48 145 127 71 5 193 20 194 190 80 101 158 156 79 44 91 159 83 148 29 6
Route 6: 137 64 198 174 102 164 57 113 131 169 192 84 53 27 18 115 111 121 123 26 140 124 120 37 56 180 55 85 135
Route 7: 185
Vehicles: 7
Distance: 2802.06
